ciphers.affine_cipher/6_sat.smt2
(set-logic ALL)
(declare-const keyA_VAR Int)
(declare-const keyB_VAR Int)
(declare-const mode_VAR String)
(assert (= mode_VAR "encrypt"))
(assert (= keyA_VAR 1))
(check-sat)
(get-value (keyA_VAR))
(get-value (keyB_VAR))
(get-value (mode_VAR))
